# ------------------------------------
# pH_POPG (POPG1 & H3 ghosted); ion pair-pi
# ------------------------------------
! SP revDSD-PBEP86-D4/2021 def2-QZVPPD RIJCOSX def2/J TightSCF CPCM
%basis
  basis   "def2-QZVPPD"
  aux     "def2/J"           # RI-J (for SCF/RIJCOSX)
  auxC    "def2-QZVPPD/C"    # required for RI-MP2 (AuxC)
end
%pal
    nprocs 10
end
%MaxCore 2000
%cpcm 
   epsilon 3.0 
end
*xyz 1 1
# POPG1 ghosted
C:     2.94800     -0.58200      -1.60100
C:     2.89700     -5.49900      -1.26400
O:     3.60700     -1.72800      -1.11500
O:     3.56400     -3.22400       0.92000
O:     1.36200     -2.79700      -0.43800
O:     3.29600     -4.16100      -1.44100
P:     2.87600     -2.97400      -0.40400
H:     3.67900      0.10200      -2.03300
H:     2.22800     -0.87500      -2.36500
H:     2.42800     -0.08800      -0.78100
H:     3.29400     -6.10700      -2.07700
H:     1.80800     -5.55700      -1.26600
H:     3.27900     -5.86900      -0.31300
# Dap2
C     -1.02900     -4.28900       1.64700
N     -0.08700     -4.78600       0.66700
H      0.76600     -5.22400       1.08200
H     -0.50800     -5.47300       0.03900
H      0.33600     -4.00500       0.08700
H     -1.88600     -3.84900       1.13700
H     -1.36500     -5.11200       2.27800
H     -0.54600     -3.53200       2.26500
# His3 ghosted
C:     2.28400      0.79600       2.58600
N:     0.55600      1.10100       0.75100
N:     1.59000      2.46800      -0.62600
H:     1.76300      3.04500      -1.44000
C:     1.79400      1.40600       1.27800
C:     0.46900      1.74900      -0.38800
H:    -0.37200      1.72300      -1.07700
C:     2.45000      2.26000       0.42700
H:     3.43400      2.72100       0.47700
H:     3.28100      1.17400       2.81200
H:     2.31900     -0.28900       2.48900
H:     1.60100      1.06700       3.39100
*


