# ------------------------------------
# pH_POPG (complex); ion pair-pi
# ------------------------------------
! Opt wB97X-D3 def2-SVP RIJCOSX def2/J TightSCF CPCM
%pal
  nprocs 40
end
%maxcore 2000
%cpcm
  epsilon 3.0
end
*xyz 0 1
# POPG1
O      6.46800     -1.96500      -3.15700
C     10.47200     -6.85900      -1.86500
C      9.90500     -5.50000      -2.25800
C      8.37900     -5.53300      -2.15100
C      7.81000     -4.16800      -2.54600
C      6.28400     -4.20200      -2.43800
C      5.72400     -2.85800      -2.82700
C      3.92900     -1.33400      -3.19500
C      2.40100     -1.29000      -3.11100
C      1.95500     -1.71000      -1.70900
C      2.75600     -6.16200       1.01200
C      3.50800     -7.44400       0.65000
C      3.24500     -8.50800       1.71800
C      0.63700     -1.88200      -4.59900
C     -0.01100     -2.77900      -5.62100
C     -1.36200     -2.19100      -6.03300
C     -2.02000     -3.10300      -7.07100
C     -3.37100     -2.51400      -7.48300
C     -4.02700     -3.42200      -8.51700
O      4.39800     -2.65200      -2.80800
O      2.50700     -2.99000      -1.39700
O      2.90300     -2.89100       1.20100
O      0.78600     -3.86400       0.23000
O      2.90600     -5.20800      -0.04100
O      3.85200     -9.74000       1.32200
O      4.90900     -7.17100       0.58400
O      1.83700     -2.20200      -4.09100
O      0.07600     -0.87400      -4.23800
P      2.24400     -3.74100       0.00300
H     10.30000     -4.73500      -1.59000
H     10.19200     -5.26900      -3.28400
H      7.98400     -6.29800      -2.82000
H      8.09200     -5.76300      -1.12500
H      8.20500     -3.40300      -1.87700
H      8.09700     -3.93800      -3.57200
H      5.88900     -4.96700      -3.10700
H      5.99700     -4.43200      -1.41200
H      4.24300     -1.12100      -4.21600
H      4.35100     -0.58600      -2.52200
H      2.05500     -0.27700      -3.31500
H      2.30500     -0.97600      -0.98200
H      0.86700     -1.76500      -1.67500
H      1.69800     -6.38700       1.15000
H      3.16300     -5.75000       1.93600
H      3.16200     -7.80700      -0.31700
H      3.67000     -8.18300       2.66700
H      2.17100     -8.65100       1.83100
H      0.63300     -2.85800      -6.49700
H     -0.16200     -3.77000      -5.19100
H     -2.00700     -2.11300      -5.15800
H     -1.21100     -1.20100      -6.46300
H     -1.37600     -3.18000      -7.94700
H     -2.17100     -4.09300      -6.64100
H     -4.01600     -2.43600      -6.60700
H     -3.22000     -1.52300      -7.91300
H      3.72500    -10.46100       1.95300
H      5.28600     -6.84400       1.41100
H     -4.98900     -3.00300      -8.81100
H     -4.17800     -4.41200      -8.08600
H     -3.38200     -3.50100      -9.39200
H     10.07700     -7.62400      -2.53300
H     11.55900     -6.83500      -1.94300
H     10.18500     -7.08900      -0.83900
# Dap2-His3
C     -3.64400     -2.68300       5.58200
C     -2.19800     -2.25400       5.80200
O     -2.01300     -1.65800       6.89100
H     -3.73100     -3.19200       4.62200
H     -4.28800     -1.80400       5.58700
H     -3.94800     -3.36000       6.38100
N     -1.34200     -2.64900       4.90300
H     -1.70000     -2.95500       3.98400
C      0.10200     -2.51700       5.12000
H      0.06700     -2.24500       6.19200
C      0.81300     -1.31300       4.55100
O      2.03100     -1.19900       4.74300
C      1.04500     -3.73400       5.00000
H      0.38000     -4.53300       5.27000
H      1.91400     -3.57500       5.61400
N      1.45400     -4.06300       3.55000
H      1.65500     -3.20400       3.03200
H      2.27700     -4.66300       3.44100
H      0.66900     -4.45400       3.00700
N      0.05700     -0.44200       3.85000
H     -0.96500     -0.47700       3.94400
C      0.69500      0.87500       3.47800
H      1.71900      0.56300       3.20200
C      0.61500      1.80400       4.57700
O     -0.27500      1.90100       5.49100
C      0.04300      1.45900       2.18900
H      0.55500      2.38300       1.85900
H     -0.98000      1.82000       2.42300
N     -1.02600     -0.15600       0.54900
N      0.62900     -0.33100      -0.93900
H      1.09200     -0.42000      -1.81900
C      0.02700      0.66900       0.92400
C     -0.59900     -0.73000      -0.56400
H     -1.18700     -1.52100      -1.03300
C      1.02800      0.57100       0.01900
H      2.00100      1.04800       0.03100
N      1.67000      2.61200       4.64400
H      2.43300      2.59700       3.95000
H      1.64900      3.40800       5.28800
*
