# ------------------------------------
# bH_POPG (POPG1 & H3 ghosted); ion pair-pi
# ------------------------------------
! SP revDSD-PBEP86-D4/2021 def2-QZVPPD RIJCOSX def2/J TightSCF CPCM
%basis
  basis   "def2-QZVPPD"
  aux     "def2/J"           # RI-J (for SCF/RIJCOSX)
  auxC    "def2-QZVPPD/C"    # required for RI-MP2 (AuxC)
end
%pal
    nprocs 10
end
%MaxCore 2000
%cpcm 
   epsilon 3.0 
end
*xyz 1 1
# POPG1 ghosted
C:     1.20000     -1.81000      -4.27400
C:     4.37700     -5.09000      -2.19600
O:     2.45600     -2.41300      -4.07300
O:     3.82400     -1.91400      -1.94100
O:     1.71700     -3.37400      -1.78500
O:     3.78400     -4.20100      -3.11300
P:     2.91700     -2.92000      -2.61200
H:     1.08800     -1.54300      -5.32500
H:     1.12600     -0.91100      -3.66100
H:     0.41200     -2.50800      -3.99000
H:     4.90800     -5.87200      -2.73900
H:     5.07900     -4.54500      -1.56500
H:     3.60300     -5.54000      -1.57400
# Dab2
C      2.89500     -3.89300       3.17500
C      2.40400     -4.20600       1.76600
H      1.30500     -4.18800       1.71900
H      2.72000     -5.21200       1.46000
N      2.91700     -3.25700       0.75500
H      2.90500     -2.29100       1.13600
H      3.90100     -3.46200       0.48000
H      2.36700     -3.30000      -0.13600
H      3.98400     -3.91700       3.19500
H      2.50200     -4.63600       3.86900
H      2.54700     -2.90200       3.46900
# His3 ghosted
C:    -0.09100      0.94200       2.50500
N:     1.25100      0.93200       0.37600
N:     0.78100     -1.05700      -0.46400
H:     0.88600     -1.89600      -1.05200
C:     0.33400      0.30900       1.18500
C:     1.50400      0.08300      -0.59600
H:     2.19700      0.23600      -1.42600
C:     0.02800     -0.93200       0.67500
H:    -0.65000     -1.71300       1.01500
H:    -0.82100      0.30000       2.99800
H:     0.78100      1.06200       3.14800
H:    -0.53700      1.91800       2.31200
*


