# ------------------------------------
# bH_POPG (complex); ion pair-pi
# ------------------------------------
! Opt wB97X-D3 def2-SVP RIJCOSX def2/J TightSCF CPCM
%pal
  nprocs 40
end
%maxcore 2000
%cpcm
  epsilon 3.0
end
*xyz 0 1
# POPG1
O      5.42800      0.70000      -5.55800
C     11.36900     -0.23800      -3.21800
C     10.13800      0.37200      -3.88000
C      8.98300     -0.63000      -3.83000
C      7.74800     -0.01700      -4.49400
C      6.59300     -1.01900      -4.44500
C      5.37700     -0.41600      -5.09900
C      3.10500     -0.47500      -5.81500
C      1.90300     -1.42300      -5.80300
C      1.61700     -1.86600      -4.36600
C      4.62800     -4.38200      -0.83500
C      6.06500     -4.90200      -0.92200
C      6.37600     -5.74900       0.31300
C      1.16000     -3.18500      -7.22500
C      1.38800     -4.39900      -8.08800
C      0.05100     -4.88000      -8.65700
C      0.28400     -6.11200      -9.53300
C     -1.05400     -6.59200     -10.10100
C     -0.82200     -7.82100     -10.97400
O      4.23500     -1.11900      -5.17200
O      2.79900     -2.43600      -3.80000
O      2.64400     -1.80300      -1.25200
O      1.79700     -4.02100      -2.11000
O      4.29800     -3.68900      -2.04000
O      7.67500     -6.32900       0.17800
O      6.96700     -3.79600      -0.98100
O      2.19800     -2.58800      -6.61900
O      0.04200     -2.74800      -7.08000
P      2.86200     -3.00900      -2.29700
H      9.85500      1.28100      -3.35100
H     10.36600      0.61300      -4.91900
H      9.26700     -1.53900      -4.36100
H      8.75600     -0.87100      -2.79200
H      7.46400      0.89200      -3.96400
H      7.97500      0.22300      -5.53300
H      6.87700     -1.92900      -4.97500
H      6.36500     -1.26000      -3.40600
H      3.36300     -0.23000      -6.84500
H      2.85100      0.43800      -5.27600
H      1.03100     -0.90900      -6.20500
H      1.31000     -1.00300      -3.77500
H      0.82000     -2.60900      -4.36700
H      3.94500     -5.22100      -0.70100
H      4.53800     -3.70200       0.01100
H      6.17700     -5.51100      -1.81800
H      6.35000     -5.11900       1.20200
H      5.63300     -6.54000       0.40700
H      2.06000     -4.14100      -8.90700
H      1.83400     -5.19200      -7.48800
H     -0.62000     -5.13700      -7.83700
H     -0.39500     -4.08600      -9.25700
H      0.95500     -5.85400     -10.35200
H      0.73000     -6.90600      -8.93300
H     -1.72500     -6.85100      -9.28100
H     -1.50000     -5.79900     -10.70100
H      7.93900     -6.88000       0.92600
H      6.92200     -3.20900      -0.21400
H     -1.77400     -8.16400     -11.38000
H     -0.37600     -8.61400     -10.37300
H     -0.15000     -7.56300     -11.79200
H     11.65300     -1.14700      -3.74800
H     12.19200      0.47600      -3.25600
H     11.14200     -0.47800      -2.18000
# Dab2-His3
C     -0.74600     -3.91800       7.69000
C      0.18200     -3.10500       6.79500
O      0.93700     -2.22900       7.35000
H     -1.32000     -4.61600       7.08000
H     -0.15400     -4.47400       8.41700
H     -1.42700     -3.24700       8.21300
N      0.26900     -3.55800       5.59000
H     -0.47900     -4.16300       5.21600
C      1.36800     -3.16300       4.78000
H      2.24200     -3.33900       5.43100
C      1.27800     -1.73800       4.19300
O      2.30800     -1.11500       3.82800
C      1.63700     -4.13500       3.55000
H      1.47400     -5.16100       3.93900
H      2.70300     -4.13500       3.23700
C      0.63900     -3.88600       2.45000
H      0.73100     -2.82500       2.23700
H     -0.38100     -4.01800       2.79300
N      1.01400     -4.73800       1.21000
H      1.79700     -4.35300       0.67200
H      1.33000     -5.68900       1.39600
H      0.24400     -4.75500       0.52700
N      0.02000     -1.16400       4.13200
H     -0.81300     -1.73600       4.33000
C     -0.12200      0.26200       3.74000
H      0.85100      0.74700       3.51500
C     -0.67400      1.04800       4.82900
O     -1.21500      0.67200       5.84700
C     -1.02400      0.35000       2.46900
H     -1.52900      1.34400       2.51300
H     -1.85700     -0.37000       2.57800
N      0.49100      0.97000       0.40400
N     -0.09200     -0.68000      -0.95700
H     -0.15300     -1.15900      -1.83200
C     -0.33800      0.10500       1.08200
C      0.60500      0.47300      -0.80900
H      0.99500      1.02300      -1.67000
C     -0.70100     -0.92100       0.28100
H     -1.34100     -1.79400       0.41900
N     -0.66600      2.34000       4.64100
H     -0.19300      2.87900       3.90300
H     -1.14100      2.97500       5.29100
*
