# ------------------------------------
# HH_POPG (POPG1 & H3 ghosted); ion pair-pi
# ------------------------------------
! SP revDSD-PBEP86-D4/2021 def2-QZVPPD RIJCOSX def2/J TightSCF CPCM
%basis
  basis   "def2-QZVPPD"
  aux     "def2/J"           # RI-J (for SCF/RIJCOSX)
  auxC    "def2-QZVPPD/C"    # required for RI-MP2 (AuxC)
end
%pal
    nprocs 10
end
%MaxCore 2000
%cpcm 
   epsilon 3.0 
end
*xyz 0 1
# POPG1 ghosted
C:    -2.31700     -4.05900       5.68500
C:    -3.86700      0.00400       3.54800
O:    -2.27400     -2.65800       5.82200
O:    -1.10400     -0.54500       5.05800
O:    -1.66400     -2.42300       3.33700
O:    -3.54500     -1.04000       4.43500
P:    -2.03600     -1.63800       4.58900
H:    -2.49000     -4.51500       6.66000
H:    -1.36900     -4.41300       5.28100
H:    -3.12500     -4.33300       5.00700
H:    -4.93100      0.23000       3.62200
H:    -3.63100     -0.30000       2.52800
H:    -3.28800      0.89100       3.80600
# His2 ghosted
C:     3.89600     -0.92200       0.44700
N:     2.35200     -0.10800       2.26300
N:     1.01500     -1.83600       2.56800
H:     0.17500     -2.33200       2.89600
C:     2.73200     -1.12300       1.41100
C:     1.32000     -0.57400       2.93600
H:     0.75100     -0.05800       3.70900
C:     1.89600     -2.20300       1.58300
H:     1.86000     -3.17500       1.09600
H:     4.04500     -1.82900      -0.13900
H:     4.80200     -0.70300       1.01300
H:     3.67500     -0.08900      -0.22100
# His3
C     -0.81300     -0.83300      -2.74200
N     -0.96000      0.42200      -0.55100
N     -1.54200     -1.18000       0.85600
H     -1.69800     -1.66500       1.75700
C     -1.11600     -0.75500      -1.25000
C     -1.22300      0.12500       0.70700
H     -1.21700      0.81400       1.55500
C     -1.46600     -1.76200      -0.38100
H     -1.65100     -2.82200      -0.53800
H     -1.00100     -1.84600      -3.09900
H      0.23200     -0.57600      -2.91400
H     -1.45300     -0.13400      -3.28000
*


