# ------------------------------------
# HH_POPG (complex); ion pair-pi
# ------------------------------------
! Opt wB97X-D3 def2-SVP RIJCOSX def2/J TightSCF CPCM
%pal
  nprocs 40
end
%maxcore 2000
%cpcm
  epsilon 3.0
end
*xyz -1 1
# POPG1
O     -2.83700     -1.48900       7.83100
C     -5.12700      4.30300       9.52200
C     -4.49200      2.91800       9.55100
C     -4.50600      2.32100       8.14200
C     -3.86800      0.93000       8.17100
C     -3.88200      0.33300       6.76200
C     -3.25300     -1.03600       6.79100
C     -2.54000     -3.06400       5.76300
C     -2.51700     -3.72600       4.38300
C     -1.82000     -2.80000       3.38500
C     -2.91900      2.13300       1.86000
C     -4.03600      3.09200       2.27700
C     -4.01800      4.32000       1.36500
C     -4.07600     -5.03100       3.14000
C     -5.46200     -5.35200       2.64400
C     -5.41000     -6.59400       1.75100
C     -6.81800     -6.91900       1.24800
C     -6.76500     -8.16100       0.35600
C     -8.16800     -8.48500      -0.14600
O     -3.15600     -1.75400       5.66100
O     -2.46100     -1.52300       3.39300
O     -0.50700      0.16500       2.89200
O     -1.97500     -0.73400       1.04500
O     -3.00700      0.93500       2.63400
O     -5.13100      5.16100       1.67800
O     -3.83200      3.50000       3.63000
O     -3.87900     -3.97500       3.94500
O     -3.14200     -5.72500       2.81300
P     -1.98700     -0.29900       2.46100
H     -3.46300      2.99700       9.90300
H     -5.05600      2.27200      10.22400
H     -5.53500      2.24100       7.79200
H     -3.94100      2.96600       7.46900
H     -2.83800      1.01000       8.52300
H     -4.43200      0.28500       8.84500
H     -4.91100      0.25400       6.41100
H     -3.31700      0.97800       6.08900
H     -3.11300     -3.68300       6.45400
H     -1.51900     -2.95800       6.13100
H     -1.97600     -4.67000       4.44300
H     -0.77400     -2.68500       3.66500
H     -1.88300     -3.23100       2.38500
H     -3.02400      1.89000       0.80300
H     -1.95200      2.60500       2.03100
H     -4.99800      2.58900       2.18900
H     -3.09200      4.87300       1.51700
H     -4.08400      4.00200       0.32500
H     -6.11700     -5.54300       3.49400
H     -5.84700     -4.50800       2.07100
H     -4.75500     -6.40300       0.90100
H     -5.02500     -7.43700       2.32400
H     -7.47200     -7.11000       2.09800
H     -7.20300     -6.07500       0.67500
H     -6.11000     -7.97000      -0.49500
H     -6.38000     -9.00500       0.92900
H     -5.18300      5.96100       1.13700
H     -2.99300      3.95700       3.78200
H     -8.13200     -9.37000      -0.78100
H     -8.55200     -7.64200      -0.71900
H     -8.82300     -8.67500       0.70500
H     -6.15600      4.22400       9.17100
H     -5.11800      4.72700      10.52700
H     -4.56200      4.94800       8.85000
# His2-His3
C      5.70100     -2.07600       2.16800
C      5.32400     -2.04100       0.69100
O      6.22800     -1.93400      -0.14700
H      4.79800     -2.17200       2.77100
H      6.35600     -2.92600       2.35500
H      6.21800     -1.15300       2.43200
N      4.03100     -2.03300       0.42500
H      3.33800     -2.13600       1.17700
C      3.60400     -2.19500      -0.95500
H      4.38300     -2.77600      -1.50000
C      3.33100     -0.92200      -1.76900
O      3.47000     -0.86600      -2.99300
C      2.36800     -3.11300      -1.08400
H      2.71900     -4.09100      -0.68600
H      2.23700     -3.25500      -2.18400
N      0.93700     -2.56500       0.93200
N     -0.80900     -1.69500      -0.03700
H     -1.73000     -1.31400      -0.15500
C      1.10300     -2.59400      -0.45800
C     -0.23500     -1.94400       1.12300
H     -0.63100     -1.74800       2.11800
C      0.02000     -2.05600      -1.05000
H     -0.21400     -1.85900      -2.09400
N      3.02100      0.21900      -1.02500
H      3.13000      0.21300      -0.00100
C      2.92600      1.33800      -1.78300
H      2.25400      1.09900      -2.63000
C      4.16500      1.85600      -2.17700
O      5.28700      1.84600      -1.57800
C      2.23900      2.57100      -0.99700
H      2.18200      3.43700      -1.69600
H      2.92200      2.84400      -0.15300
N      0.55200      2.07100       0.72900
N     -1.33400      2.13200      -0.37500
H     -2.30600      2.30000      -0.55700
C      0.81800      2.39000      -0.53100
C     -0.77300      1.89300       0.81400
H     -1.39900      1.96700       1.70400
C     -0.32800      2.39300      -1.26300
H     -0.54700      2.66500      -2.29100
N      3.99000      2.61800      -3.26000
H      3.10100      2.68600      -3.76800
H      4.80500      2.99900      -3.73100
*
