# ------------------------------------
# RH_POPG (POPG1 & R2 ghosted); ion pair-pi
# ------------------------------------
! SP revDSD-PBEP86-D4/2021 def2-QZVPPD RIJCOSX def2/J TightSCF CPCM
%basis
  basis   "def2-QZVPPD"
  aux     "def2/J"           # RI-J (for SCF/RIJCOSX)
  auxC    "def2-QZVPPD/C"    # required for RI-MP2 (AuxC)
end
%pal
    nprocs 10
end
%MaxCore 2000
%cpcm 
   epsilon 3.0 
end
*xyz 0 1
# POPG1 ghosted
C:    -1.25600      3.08800       2.88600
C:     0.26300      3.32700       7.70100
O:    -1.11600      3.51300       4.22100
O:    -0.79200      1.18700       5.29400
O:     1.24900      2.72400       4.90800
O:    -0.58000      3.41300       6.57700
P:    -0.22900      2.59700       5.21900
H:    -1.87500      3.80000       2.34100
H:    -0.27300      3.02900       2.41900
H:    -1.72800      2.10600       2.86500
H:    -0.14000      3.94100       8.50600
H:     0.32300      2.28900       8.03100
H:     1.25900      3.68100       7.43600
# Arg2 ghosted
C:     4.30800     -0.36900       1.52000
N:     3.95800     -0.33000       2.92400
H:     3.88300     -1.24600       3.36900
C:     3.18000      0.58800       3.51900
N:     3.05800      1.83100       3.06000
H:     3.67100      2.19200       2.34500
H:     2.40100      2.44200       3.56600
N:     2.54400      0.25200       4.64100
H:     2.36800     -0.73700       4.81100
H:     1.95600      0.97500       5.06800
H:     4.36600      0.64800       1.13100
H:     3.54800     -0.92500       0.97200
H:     5.27400     -0.85900       1.40000
# His3
C     -1.43400     -1.19700       2.67600
N      0.27800      0.24600       1.47600
N     -0.90600      1.03900      -0.20400
H     -1.14800      1.57700      -1.02800
C     -0.98500     -0.29300       1.53300
C      0.28900      1.03900       0.42800
H      1.13400      1.63700       0.08700
C     -1.73500      0.18800       0.48500
H     -2.76500      0.00700       0.18700
H     -2.46600     -1.50400       2.51300
H     -0.79400     -2.07800       2.71400
H     -1.36100     -0.65400       3.61900
*


