# ------------------------------------
# RH_POPG (complex); ion pair-pi
# ------------------------------------
! Opt wB97X-D3 def2-SVP RIJCOSX def2/J TightSCF CPCM
%pal
  nprocs 10
end
%maxcore 2000
%cpcm
  epsilon 3.0
end
*xyz 0 1
# POPG1
O     -5.78900      1.26500       5.39800
C     -4.56000     -0.90700      11.34900
C     -5.20000     -0.65400       9.98900
C     -4.33900      0.33000       9.19400
C     -4.98200      0.58300       7.82900
C     -4.12100      1.56700       7.03500
C     -4.75400      1.81700       5.69100
C     -4.83600      2.84600       3.54300
C     -4.02700      3.82400       2.68700
C     -2.58900      3.31700       2.55500
C      1.07800      2.25600       6.20100
C      1.04200      2.35800       7.72700
C      2.44900      2.13700       8.28500
C     -3.93700      6.19900       2.51300
C     -3.92700      7.58700       3.09800
C     -3.82300      8.61600       1.97000
C     -3.81300     10.02600       2.56400
C     -3.70900     11.05400       1.43500
C     -3.69900     12.45800       2.02800
O     -4.17000      2.65300       4.81800
O     -2.03700      3.10600       3.85500
O     -0.40200      1.07200       3.52400
O      0.41900      3.45600       3.39000
O     -0.21000      2.57700       5.67200
O      2.43800      2.34600       9.69900
O      0.16000      1.36200       8.24900
O     -4.02300      5.13100       3.32100
O     -3.86800      6.04700       1.31600
P     -0.53700      2.57200       4.09500
H     -5.27700     -1.59400       9.44300
H     -6.19600     -0.23400      10.12900
H     -4.26400      1.27000       9.74000
H     -3.34300     -0.09100       9.05400
H     -5.05800     -0.35700       7.28300
H     -5.97800      1.00400       7.96900
H     -4.04500      2.50800       7.58100
H     -3.12500      1.14700       6.89500
H     -5.83400      3.25000       3.71100
H     -4.91400      1.88900       3.02500
H     -4.47800      3.90100       1.69900
H     -2.58500      2.37900       2.00100
H     -1.99100      4.05700       2.02200
H      1.81600      2.95500       5.80700
H      1.34700      1.24100       5.91000
H      0.68700      3.34600       8.01700
H      2.76900      1.11700       8.07200
H      3.13900      2.83900       7.81900
H     -4.84900      7.75300       3.65600
H     -3.07300      7.69400       3.76600
H     -2.90200      8.45000       1.41100
H     -4.67700      8.51000       1.30100
H     -4.73500     10.19100       3.12200
H     -2.95900     10.13200       3.23300
H     -2.78700     10.88800       0.87700
H     -4.56400     10.94700       0.76600
H      3.29900      2.22300      10.12100
H      0.41500      0.45600       8.03000
H     -3.62600     13.19200       1.22500
H     -2.84500     12.56400       2.69600
H     -4.62100     12.62300       2.58700
H     -4.48300      0.03300      11.89500
H     -5.17500     -1.60700      11.91500
H     -3.56500     -1.32800      11.20900
# Arg2-His3
C      2.10300     -7.04800       1.95300
C      2.09500     -5.80800       2.83900
O      1.70200     -6.00000       4.06100
H      2.44700     -6.78000       0.95400
H      2.77400     -7.79500       2.37900
H      1.09500     -7.45800       1.89200
N      2.30800     -4.67700       2.21600
H      1.98500     -4.63600       1.24700
C      2.68200     -3.43400       2.91700
H      2.94100     -3.62000       3.98000
C      1.60000     -2.39500       2.77800
O      1.80300     -1.25600       3.26800
C      3.96000     -2.88500       2.23200
H      4.79500     -3.61300       2.31400
H      4.24600     -2.18000       3.03800
C      3.95000     -2.16400       0.89900
H      2.86500     -2.08700       0.66000
H      4.43500     -2.74500       0.08900
C      4.57000     -0.72000       1.00500
H      4.61900     -0.40200      -0.05400
H      5.64600     -0.80200       1.26500
N      3.87100      0.23900       1.82400
H      3.04100      0.07200       2.36600
C      4.49600      1.45800       1.97000
N      5.66200      1.77900       1.38200
H      6.34900      1.15300       0.98200
H      6.00700      2.72100       1.30400
N      3.88100      2.41400       2.66900
H      2.93900      2.27600       2.99900
H      3.93800      3.40600       2.46500
N      0.38900     -2.82200       2.32500
H      0.40600     -3.75300       1.87000
C     -0.85700     -2.10100       2.58400
H     -0.62200     -1.23700       3.23500
C     -1.64100     -3.09800       3.24900
O     -1.75600     -4.33200       3.08100
C     -1.60900     -1.59600       1.38600
H     -2.49200     -0.97400       1.67400
H     -2.04200     -2.41900       0.77700
N     -0.44600      0.53000       0.94200
N      0.73200      0.13700      -0.90200
H      1.25600      0.32000      -1.73200
C     -0.70600     -0.74000       0.48600
C      0.42300      1.02700       0.08300
H      0.95500      1.98300       0.12200
C      0.00700     -0.99900      -0.65300
H      0.09400     -1.86900      -1.28200
N     -2.42700     -2.65100       4.20000
H     -2.30800     -1.70000       4.56900
H     -2.73800     -3.22500       4.98900
*
