# ------------------------------------
# OH_POPG (complex); ion pair-pi
# ------------------------------------
! Opt wB97X-D3 def2-SVP RIJCOSX def2/J TightSCF CPCM
%pal
  nprocs 40
end
%maxcore 2000
%cpcm
  epsilon 3.0
end
*xyz 0 1
# POPG1
O     -2.99400      7.58700      -5.82400
C      2.35900      7.82300      -9.42100
C      1.09300      8.19700      -8.65700
C      0.49800      6.94500      -8.01100
C     -0.77200      7.32200      -7.24400
C     -1.36700      6.06900      -6.59800
C     -2.61700      6.43900      -5.84300
C     -4.50700      5.92400      -4.48600
C     -5.16200      4.71700      -3.80900
C     -4.13900      4.02000      -2.91000
C      0.54800      1.85100      -4.00300
C      1.31700      1.71900      -5.31900
C      2.52900      0.80900      -5.11300
C     -6.70400      3.04500      -4.52000
C     -7.24500      2.06000      -5.52300
C     -8.46500      1.34900      -4.93300
C     -9.01500      0.34800      -5.95100
C    -10.23500     -0.36200      -5.36000
C    -10.78200     -1.36000      -6.37500
O     -3.31400      5.49500      -5.19200
O     -2.98100      3.68500      -3.67800
O     -1.00200      3.89300      -1.95800
O     -2.13100      1.67900      -2.40200
O     -0.64600      2.60400      -4.22200
O      3.18100      0.59300      -6.36600
O      1.75700      3.01100      -5.74400
O     -5.62800      3.78800      -4.82400
O     -7.23900      3.16800      -3.44400
P     -1.69900      2.93800      -3.05100
H      1.33900      8.92500      -7.88400
H      0.36800      8.63100      -9.34600
H      0.25200      6.21800      -8.78600
H      1.22300      6.51100      -7.32300
H     -0.52600      8.04900      -6.47000
H     -1.49700      7.75500      -7.93300
H     -1.61300      5.34200      -7.37300
H     -0.64200      5.63500      -5.91000
H     -5.20800      6.36800      -5.19300
H     -4.23700      6.66200      -3.73000
H     -6.00600      5.05100      -3.20700
H     -3.85500      4.68700      -2.09700
H     -4.57700      3.11000      -2.49900
H      0.28900      0.85900      -3.63200
H      1.17100      2.36200      -3.26800
H      0.66500      1.28900      -6.07900
H      3.22500      1.28200      -4.41900
H      2.20100     -0.14600      -4.70400
H     -7.53700      2.58700      -6.43100
H     -6.47700      1.32400      -5.76100
H     -8.17400      0.82100      -4.02500
H     -9.23400      2.08400      -4.69500
H     -9.30600      0.87700      -6.85800
H     -8.24600     -0.38700      -6.18900
H     -9.94300     -0.89100      -4.45200
H    -11.00400      0.37300      -5.12200
H      3.96000      0.02400      -6.31100
H      2.34200      3.45300      -5.11600
H    -11.65200     -1.86500      -5.95500
H    -10.01300     -2.09500      -6.61200
H    -11.07200     -0.83100      -7.28300
H      2.11400      7.09500     -10.19500
H      2.78100      8.71500      -9.88300
H      3.08400      7.39000      -8.73300
# Orn2-His3
C     -0.58300      5.54300       5.12300
C     -1.43600      4.28100       5.06800
O     -2.02900      3.91900       6.11800
H     -0.13800      5.72500       4.14500
H      0.20700      5.41500       5.86400
H     -1.20800      6.39200       5.40200
N     -1.47000      3.64500       3.95100
H     -0.83000      3.96100       3.21400
C     -2.24900      2.44900       3.82900
H     -3.13500      2.47000       4.50000
C     -1.36400      1.28500       4.16100
O     -1.81200      0.27300       4.75700
C     -2.76700      2.32200       2.39000
H     -3.48500      1.47800       2.36500
H     -1.89000      1.92400       1.83500
C     -3.27800      3.51200       1.72300
H     -2.45600      4.24400       1.56500
H     -4.18300      3.87600       2.25300
C     -3.65000      3.16900       0.32700
H     -4.52900      2.55300       0.34000
H     -2.85800      2.69900      -0.23600
N     -4.01100      4.44700      -0.26900
H     -5.00000      4.62000      -0.51200
H     -3.77500      5.04600       0.52900
H     -3.43600      4.89100      -0.98900
N     -0.06200      1.37000       3.85800
H      0.31300      2.32900       3.84400
C      0.76100      0.18200       3.53500
H      0.07600     -0.68700       3.60800
C      1.89800      0.18000       4.42900
O      2.40300      1.14600       5.03600
C      1.42800      0.19300       2.11400
H      2.22200     -0.58500       2.14500
H      1.96800      1.16200       2.03000
N      0.05600      1.10100       0.34200
N     -0.46200     -0.68500      -0.80800
H     -0.88200     -1.29600      -1.47200
C      0.68300     -0.01900       0.91200
C     -0.58800      0.66500      -0.69900
H     -1.11900      1.28600      -1.42100
C      0.31900     -1.12400       0.25500
H      0.63400     -2.13600       0.45700
N      2.49100     -1.02900       4.53700
H      2.28000     -1.80400       3.90700
H      3.30100     -1.23500       5.13900
*
