# ------------------------------------
# OH_POPG (O2 & H3 ghosted); ion pair-pi
# ------------------------------------
! SP revDSD-PBEP86-D4/2021 def2-QZVPPD RIJCOSX def2/J TightSCF CPCM
%basis
  basis   "def2-QZVPPD"
  aux     "def2/J"           # RI-J (for SCF/RIJCOSX)
  auxC    "def2-QZVPPD/C"    # required for RI-MP2 (AuxC)
end
%pal
    nprocs 10
end
%MaxCore 2000
%cpcm 
   epsilon 3 
end
*xyz -1 1
# POPG1
C     -5.46300      4.58600      -2.76900
C     -2.52600      1.26600      -3.33600
O     -4.15900      4.10300      -2.98300
O     -1.89600      3.82300      -1.92000
O     -4.07900      3.38500      -0.51600
O     -3.36900      1.77200      -2.32900
P     -3.31700      3.30800      -1.80300
H     -2.75600      0.21400      -3.50900
H     -2.68200      1.82800      -4.25700
H     -1.48700      1.36400      -3.02300
H     -5.82400      5.07300      -3.67500
H     -5.45500      5.30400      -1.94900
H     -6.12200      3.75500      -2.51600
# Orn2 ghosted
C:    -1.78200      4.40500       1.95200
C:    -1.94400      5.91200       1.79200
H:    -0.99400      6.43000       2.01400
H:    -2.65800      6.27300       2.54800
C:    -2.48600      6.40500       0.46000
H:    -2.66700      7.48800       0.50800
H:    -3.43700      5.90700       0.22100
N:    -1.57700      6.15200      -0.67800
H:    -1.84000      6.72600      -1.49600
H:    -0.58000      6.27900      -0.44800
H:    -1.66800      5.15900      -1.05700
H:    -2.72800      3.91200       1.72900
H:    -1.48800      4.17900       2.97700
H:    -1.01500      4.04700       1.26700
# His3 ghosted
C:     0.51500     -0.46800       2.19100
N:    -1.32900      0.74700       0.92500
N:    -3.13300     -0.11800       1.83400
H:    -4.11300     -0.28500       2.02500
C:    -0.94700     -0.20000       1.85200
C:    -2.64600      0.77400       0.94500
H:    -3.28600      1.43400       0.35400
C:    -2.06800     -0.75000       2.42400
H:    -2.19200     -1.51600       3.18700
H:     0.57600     -1.25200       2.94500
H:     0.97100      0.44400       2.57700
H:     1.04300     -0.78600       1.29200
*


