# ------------------------------------
# KH_POPG (POPG1 & K2 ghosted); ion pair-pi
# ------------------------------------
! SP revDSD-PBEP86-D4/2021 def2-QZVPPD RIJCOSX def2/J TightSCF CPCM
%basis
  basis   "def2-QZVPPD"
  aux     "def2/J"           # RI-J (for SCF/RIJCOSX)
  auxC    "def2-QZVPPD/C"    # required for RI-MP2 (AuxC)
end
%pal
    nprocs 10
end
%MaxCore 2000
%cpcm 
   epsilon 3.0 
end
*xyz 0 1
# POPG1 ghosted
C:    -1.57100     -0.80200      -4.02500
C:     2.50700     -3.28100      -5.75200
O:    -0.59700     -1.31300      -4.90300
O:     1.62100     -0.94100      -3.63200
O:     0.35900     -3.18800      -3.43900
O:     1.37000     -2.45300      -5.70000
P:     0.73700     -1.98500      -4.28600
H:    -2.39900     -0.38800      -4.60100
H:    -1.12900     -0.01800      -3.41000
H:    -1.93900     -1.60300      -3.38400
H:     2.76800     -3.47600      -6.79200
H:     3.34100     -2.78400      -5.25600
H:     2.29400     -4.22300      -5.24800
# Lys2 ghosted
C:     3.71500     -4.03000       0.83000
C:     3.56200     -3.38200      -0.54200
H:     4.36800     -2.65200      -0.70300
H:     2.64500     -2.76900      -0.57000
C:     3.54700     -4.35600      -1.72200
H:     3.49600     -3.77200      -2.65400
H:     4.49500     -4.91800      -1.76300
C:     2.42400     -5.38500      -1.69000
H:     2.55400     -6.11100      -0.87400
H:     2.38200     -5.94600      -2.63300
N:     1.10000     -4.74200      -1.50100
H:     1.07600     -4.22300      -0.61400
H:     0.85200     -4.05700      -2.30300
H:     0.34900     -5.43600      -1.45800
H:     2.91400     -4.75200       0.98200
H:     4.67800     -4.53800       0.88600
H:     3.66500     -3.26200       1.60200
# His3
C      1.03000      0.64700       2.54700
N      0.51600     -0.95600       0.64300
N      1.24400      0.17400      -1.10300
H      1.49300      0.34300      -2.08200
C      1.00100      0.26200       1.07200
C      0.68300     -0.96800      -0.66600
H      0.42300     -1.77800      -1.34700
C      1.45600      0.97500      -0.01600
H      1.90400      1.96100      -0.10300
H      1.45100      1.64600       2.65400
H      0.01600      0.63500       2.94500
H      1.64400     -0.06700       3.09600
*


