# ------------------------------------
# KH_POPG (complex); ion pair-pi
# ------------------------------------
! Opt wB97X-D3 def2-SVP RIJCOSX def2/J TightSCF CPCM
%pal
  nprocs 40
end
%maxcore 2000
%cpcm
  epsilon 3.0
end
*xyz 0 1
# POPG1
O      2.29000      3.56400      -5.55100
C      8.16900      1.23200      -6.83400
C      7.00500      2.15900      -6.50200
C      5.70900      1.34700      -6.44000
C      4.54100      2.27800      -6.10700
C      3.24500      1.46700      -6.04400
C      2.09500      2.38300      -5.71700
C     -0.20800      2.82800      -5.29200
C     -1.54300      2.08500      -5.21100
C     -1.42700      0.93500      -4.20800
C      1.79800     -3.24200      -4.06200
C      2.91400     -3.68900      -5.00800
C      3.38500     -5.09000      -4.61500
C     -3.18500      1.43700      -6.81200
C     -3.61200      0.89500      -8.15100
C     -5.14000      0.86700      -8.22700
C     -5.57300      0.31500      -9.58700
C     -7.10100      0.28800      -9.66300
C     -7.53200     -0.26200     -11.01800
O      0.85200      1.88800      -5.60900
O     -0.32900      0.09600      -4.57200
O      0.58500     -0.78000      -2.26600
O     -1.08300     -2.11400      -3.61200
O      1.27800     -1.98400      -4.49800
O      4.34500     -5.55400      -5.56700
O      4.00800     -2.77500      -4.91700
O     -1.88000      1.55400      -6.52000
O     -4.01800      1.76900      -6.00100
P      0.08800     -1.21500      -3.73400
H      7.18300      2.63500      -5.53900
H      6.91800      2.92300      -7.27400
H      5.53100      0.87200      -7.40400
H      5.79600      0.58300      -5.66800
H      4.71900      2.75400      -5.14200
H      4.45400      3.04300      -6.87900
H      3.06700      0.99000      -7.00900
H      3.33200      0.70200      -5.27200
H     -0.26300      3.59000      -6.06900
H      0.00200      3.30200      -4.33200
H     -2.32300      2.77300      -4.88600
H     -1.26200      1.33900      -3.21000
H     -2.34800      0.35100      -4.21700
H      1.00000     -3.98500      -4.06400
H      2.19600     -3.14000      -3.05200
H      2.53800     -3.70500      -6.03000
H      3.84200     -5.05600      -3.62600
H      2.53300     -5.76800      -4.59800
H     -3.22000      1.53300      -8.94400
H     -3.22400     -0.11600      -8.27400
H     -5.53200      0.22900      -7.43500
H     -5.52800      1.87800      -8.10500
H     -5.18100      0.95400     -10.37900
H     -5.18400     -0.69600      -9.71000
H     -7.49200     -0.35100      -8.87000
H     -7.48900      1.29900      -9.54000
H      4.68800     -6.43800      -5.38000
H      4.39400     -2.70900      -4.03300
H     -8.62100     -0.28200     -11.07300
H     -7.14400     -1.27300     -11.13900
H     -7.13900      0.37600     -11.81000
H      7.99100      0.75500      -7.79800
H      9.09200      1.81100      -6.88000
H      8.25700      0.46800      -6.06200
# Lys2-His3
C      2.30300     -5.93200       4.49500
C      3.07300     -4.74000       3.93800
O      3.70000     -3.99700       4.68800
H      1.81600     -6.46500       3.67800
H      2.99400     -6.60300       5.00600
H      1.55000     -5.58100       5.20000
N      2.93900     -4.57800       2.64500
H      2.60000     -5.38800       2.10900
C      3.66700     -3.48400       2.00700
H      4.68000     -3.56700       2.44500
C      3.06600     -2.12900       2.34300
O      3.73700     -1.07800       2.10200
C      3.81000     -3.75500       0.46500
H      3.99400     -4.82800       0.27000
H      4.66200     -3.16200       0.05600
C      2.62200     -3.21800      -0.30600
H      2.36500     -2.18000      -0.00700
H      1.74200     -3.85300      -0.04600
C      2.70900     -3.26700      -1.80700
H      1.81300     -2.74600      -2.19400
H      3.62400     -2.66800      -2.01400
C      2.73400     -4.63800      -2.59000
H      3.30000     -5.36500      -2.03000
H      3.18200     -4.41700      -3.54200
N      1.35000     -5.18100      -2.69800
H      1.00500     -5.68000      -1.87100
H      0.64300     -4.47400      -2.94600
H      1.32600     -5.94500      -3.38800
N      1.78100     -2.11000       2.76000
H      1.31500     -3.01300       2.63600
C      1.11400     -0.95400       3.28800
H      1.83600     -0.10800       3.22900
C      0.56000     -1.30800       4.51200
O     -0.03000     -2.33700       4.90200
C     -0.17000     -0.54800       2.55100
H     -0.60500      0.39400       2.94300
H     -0.99200     -1.29700       2.58300
N     -0.90700     -0.71100       0.17400
N      0.56900      0.61700      -0.80500
H      0.90700      1.34400      -1.39300
C      0.01000     -0.24900       1.09800
C     -0.53500     -0.17500      -0.96900
H     -0.98600     -0.43600      -1.92000
C      0.91400      0.55200       0.51300
H      1.74100      1.12300       0.91700
N      0.78500     -0.37300       5.41300
H      1.21700      0.49600       5.09100
H      0.36000     -0.44500       6.34200
*
